c Reduced graph for GEOM90a_2 generated by Cyril Grelier
p edge 86 749
v 1 10
v 2 10
v 3 10
v 4 10
v 5 10
v 6 9
v 7 9
v 8 9
v 9 9
v 10 9
v 11 9
v 12 9
v 13 9
v 14 8
v 15 8
v 16 8
v 17 8
v 18 8
v 19 8
v 20 8
v 21 8
v 22 7
v 23 7
v 24 7
v 25 7
v 26 7
v 27 7
v 28 7
v 29 7
v 30 7
v 31 7
v 32 6
v 33 6
v 34 6
v 35 6
v 36 6
v 37 6
v 38 6
v 39 6
v 40 6
v 41 6
v 42 5
v 43 5
v 44 5
v 45 5
v 46 5
v 47 5
v 48 5
v 49 5
v 50 4
v 51 4
v 52 4
v 53 4
v 54 4
v 55 4
v 56 4
v 57 4
v 58 4
v 59 3
v 60 3
v 61 3
v 62 3
v 63 3
v 64 3
v 65 3
v 66 3
v 67 3
v 68 3
v 69 2
v 70 2
v 71 2
v 72 2
v 73 2
v 74 2
v 75 2
v 76 2
v 77 2
v 78 2
v 79 1
v 80 1
v 81 1
v 82 1
v 83 1
v 84 1
v 85 1
v 86 1
e 1 6
e 1 10
e 1 16
e 1 41
e 1 43
e 1 45
e 1 51
e 1 52
e 1 54
e 1 59
e 1 60
e 1 69
e 1 75
e 1 76
e 1 77
e 1 78
e 1 80
e 1 81
e 1 82
e 1 86
e 2 9
e 2 12
e 2 17
e 2 19
e 2 20
e 2 33
e 2 36
e 2 37
e 2 44
e 2 48
e 2 50
e 2 56
e 2 58
e 2 63
e 2 64
e 2 66
e 2 67
e 2 74
e 2 84
e 2 85
e 3 7
e 3 14
e 3 18
e 3 22
e 3 27
e 3 32
e 3 35
e 3 38
e 3 42
e 3 46
e 3 47
e 3 61
e 3 62
e 3 65
e 3 70
e 3 71
e 3 72
e 3 79
e 3 83
e 4 14
e 4 22
e 4 23
e 4 24
e 4 28
e 4 29
e 4 30
e 4 38
e 4 39
e 4 40
e 4 46
e 4 61
e 4 70
e 4 71
e 4 72
e 4 73
e 5 6
e 5 21
e 5 23
e 5 25
e 5 26
e 5 45
e 5 49
e 5 51
e 5 59
e 5 68
e 5 69
e 5 77
e 5 80
e 6 8
e 6 15
e 6 16
e 6 21
e 6 25
e 6 26
e 6 43
e 6 45
e 6 51
e 6 52
e 6 53
e 6 54
e 6 55
e 6 59
e 6 60
e 6 68
e 6 69
e 6 75
e 6 76
e 6 77
e 6 80
e 6 81
e 6 82
e 7 14
e 7 18
e 7 27
e 7 32
e 7 35
e 7 38
e 7 42
e 7 46
e 7 47
e 7 61
e 7 62
e 7 65
e 7 70
e 7 72
e 7 79
e 7 83
e 8 15
e 8 22
e 8 23
e 8 24
e 8 25
e 8 26
e 8 34
e 8 52
e 8 53
e 8 55
e 8 59
e 8 69
e 8 70
e 8 71
e 8 73
e 8 81
e 9 19
e 9 20
e 9 31
e 9 33
e 9 36
e 9 48
e 9 50
e 9 56
e 9 57
e 9 62
e 9 63
e 9 64
e 9 74
e 9 84
e 10 16
e 10 21
e 10 41
e 10 45
e 10 51
e 10 54
e 10 59
e 10 60
e 10 75
e 10 76
e 10 77
e 10 78
e 10 80
e 11 17
e 11 33
e 11 37
e 11 43
e 11 44
e 11 50
e 11 58
e 11 66
e 11 81
e 11 82
e 11 85
e 11 86
e 12 19
e 12 20
e 12 33
e 12 37
e 12 44
e 12 50
e 12 63
e 12 66
e 12 67
e 12 74
e 12 85
e 13 23
e 13 26
e 13 29
e 13 30
e 13 39
e 13 40
e 13 49
e 14 18
e 14 22
e 14 28
e 14 32
e 14 38
e 14 42
e 14 46
e 14 47
e 14 61
e 14 65
e 14 70
e 14 71
e 14 72
e 14 73
e 14 79
e 14 83
e 15 22
e 15 23
e 15 24
e 15 25
e 15 32
e 15 34
e 15 43
e 15 52
e 15 53
e 15 55
e 15 59
e 15 64
e 15 69
e 15 70
e 15 71
e 15 81
e 15 82
e 16 21
e 16 41
e 16 45
e 16 51
e 16 54
e 16 59
e 16 60
e 16 68
e 16 75
e 16 76
e 16 77
e 16 78
e 16 80
e 17 33
e 17 37
e 17 43
e 17 44
e 17 50
e 17 52
e 17 58
e 17 66
e 17 74
e 17 81
e 17 82
e 17 85
e 17 86
e 18 27
e 18 31
e 18 32
e 18 35
e 18 42
e 18 47
e 18 61
e 18 62
e 18 65
e 18 72
e 18 79
e 18 83
e 19 20
e 19 33
e 19 37
e 19 44
e 19 50
e 19 56
e 19 63
e 19 66
e 19 67
e 19 74
e 19 84
e 19 85
e 20 33
e 20 37
e 20 44
e 20 50
e 20 56
e 20 63
e 20 66
e 20 67
e 20 74
e 20 84
e 20 85
e 21 45
e 21 51
e 21 54
e 21 59
e 21 68
e 21 69
e 21 77
e 21 78
e 21 80
e 22 23
e 22 24
e 22 25
e 22 28
e 22 32
e 22 34
e 22 38
e 22 42
e 22 46
e 22 53
e 22 55
e 22 61
e 22 65
e 22 70
e 22 71
e 22 72
e 22 73
e 22 79
e 22 83
e 23 24
e 23 25
e 23 26
e 23 28
e 23 29
e 23 30
e 23 39
e 23 40
e 23 49
e 23 53
e 23 55
e 23 69
e 23 70
e 23 71
e 23 73
e 24 25
e 24 26
e 24 28
e 24 29
e 24 30
e 24 39
e 24 40
e 24 49
e 24 53
e 24 55
e 24 69
e 24 70
e 24 71
e 24 73
e 25 26
e 25 34
e 25 39
e 25 52
e 25 53
e 25 55
e 25 59
e 25 69
e 25 70
e 25 71
e 25 73
e 25 81
e 26 29
e 26 30
e 26 39
e 26 40
e 26 49
e 26 53
e 26 68
e 26 69
e 26 73
e 26 77
e 27 31
e 27 32
e 27 35
e 27 42
e 27 47
e 27 48
e 27 57
e 27 62
e 27 65
e 27 72
e 27 79
e 27 83
e 28 29
e 28 30
e 28 38
e 28 39
e 28 40
e 28 46
e 28 61
e 28 70
e 28 71
e 28 73
e 29 30
e 29 39
e 29 40
e 29 49
e 29 73
e 30 39
e 30 40
e 30 49
e 30 73
e 31 32
e 31 35
e 31 36
e 31 47
e 31 48
e 31 57
e 31 62
e 31 79
e 32 34
e 32 35
e 32 36
e 32 42
e 32 47
e 32 48
e 32 57
e 32 61
e 32 62
e 32 64
e 32 65
e 32 70
e 32 71
e 32 72
e 32 79
e 32 83
e 32 84
e 33 36
e 33 37
e 33 44
e 33 48
e 33 50
e 33 56
e 33 58
e 33 63
e 33 64
e 33 66
e 33 67
e 33 74
e 33 84
e 33 85
e 34 36
e 34 42
e 34 43
e 34 50
e 34 52
e 34 53
e 34 55
e 34 56
e 34 57
e 34 64
e 34 70
e 34 71
e 34 79
e 34 81
e 34 84
e 35 36
e 35 42
e 35 47
e 35 48
e 35 57
e 35 61
e 35 62
e 35 64
e 35 65
e 35 72
e 35 79
e 35 83
e 35 84
e 36 42
e 36 48
e 36 50
e 36 56
e 36 57
e 36 62
e 36 63
e 36 64
e 36 74
e 36 79
e 36 84
e 37 43
e 37 44
e 37 50
e 37 58
e 37 66
e 37 67
e 37 74
e 37 85
e 37 86
e 38 42
e 38 46
e 38 61
e 38 65
e 38 70
e 38 71
e 38 72
e 38 73
e 38 79
e 38 83
e 39 40
e 39 46
e 39 49
e 39 53
e 39 71
e 39 73
e 40 46
e 40 49
e 40 73
e 41 45
e 41 51
e 41 54
e 41 60
e 41 75
e 41 76
e 41 78
e 41 80
e 42 46
e 42 47
e 42 57
e 42 61
e 42 62
e 42 64
e 42 65
e 42 70
e 42 71
e 42 72
e 42 73
e 42 79
e 42 83
e 43 44
e 43 50
e 43 52
e 43 55
e 43 58
e 43 59
e 43 60
e 43 69
e 43 75
e 43 76
e 43 80
e 43 81
e 43 82
e 43 86
e 44 50
e 44 56
e 44 58
e 44 63
e 44 66
e 44 67
e 44 74
e 44 81
e 44 85
e 44 86
e 45 51
e 45 54
e 45 59
e 45 60
e 45 68
e 45 69
e 45 75
e 45 76
e 45 77
e 45 78
e 45 80
e 46 61
e 46 65
e 46 70
e 46 71
e 46 72
e 46 73
e 46 83
e 47 57
e 47 61
e 47 62
e 47 65
e 47 72
e 47 79
e 47 83
e 48 56
e 48 57
e 48 62
e 48 63
e 48 64
e 48 74
e 48 79
e 48 84
e 50 56
e 50 58
e 50 63
e 50 64
e 50 66
e 50 67
e 50 74
e 50 81
e 50 84
e 50 85
e 51 54
e 51 59
e 51 60
e 51 68
e 51 69
e 51 75
e 51 76
e 51 77
e 51 78
e 51 80
e 51 82
e 52 53
e 52 55
e 52 59
e 52 60
e 52 69
e 52 75
e 52 76
e 52 77
e 52 80
e 52 81
e 52 82
e 53 55
e 53 59
e 53 69
e 53 70
e 53 71
e 53 73
e 53 81
e 54 59
e 54 60
e 54 68
e 54 75
e 54 76
e 54 77
e 54 78
e 54 80
e 54 82
e 55 59
e 55 60
e 55 69
e 55 71
e 55 81
e 55 82
e 56 57
e 56 62
e 56 63
e 56 64
e 56 74
e 56 84
e 57 62
e 57 63
e 57 64
e 57 79
e 57 84
e 58 66
e 58 67
e 58 74
e 58 85
e 58 86
e 59 60
e 59 68
e 59 69
e 59 75
e 59 76
e 59 77
e 59 80
e 59 81
e 59 82
e 60 69
e 60 75
e 60 76
e 60 77
e 60 78
e 60 80
e 60 81
e 60 82
e 60 86
e 61 65
e 61 70
e 61 71
e 61 72
e 61 73
e 61 79
e 61 83
e 62 64
e 62 72
e 62 79
e 62 83
e 62 84
e 63 64
e 63 66
e 63 67
e 63 74
e 63 84
e 63 85
e 64 74
e 64 79
e 64 84
e 65 70
e 65 72
e 65 79
e 65 83
e 66 67
e 66 74
e 66 85
e 67 74
e 67 85
e 68 69
e 68 77
e 68 80
e 69 75
e 69 76
e 69 77
e 69 80
e 69 81
e 69 82
e 70 71
e 70 72
e 70 73
e 70 79
e 70 83
e 71 72
e 71 73
e 71 79
e 71 83
e 72 73
e 72 79
e 72 83
e 74 84
e 74 85
e 75 76
e 75 78
e 75 80
e 75 81
e 75 82
e 75 86
e 76 77
e 76 78
e 76 80
e 76 82
e 76 86
e 77 80
e 77 82
e 78 80
e 79 83
e 80 81
e 80 82
e 81 82
e 81 86
e 82 86
